NAME : single
TYPE : ATSP
DIMENSION : 12
EDGE_WEIGHT_TYPE : EXPLICIT
EDGE_WEIGHT_FORMAT : FULL_MATRIX
EDGE_WEIGHT_SECTION
0 1398 -622 1309 1274 2224 2107 2193 2211 1222 1071 1040 
0 0 678 870 1060 2746 100000 100000 100000 120 248 335 
0 678 0 459 554 1680 100000 100000 100000 667 619 712 
0 870 459 0 145 2219 2343 100000 100000 1126 953 1029 
0 1060 554 145 0 2476 100000 100000 100000 1016 988 1105 
0 2746 1680 2219 2476 0 143 265 326 100000 2496 2359 
0 100000 100000 2343 100000 143 0 171 194 2607 2439 2304 
0 100000 100000 100000 100000 265 171 0 115 2726 2533 2389 
0 100000 100000 100000 100000 326 194 115 0 100000 100000 2278 
0 120 667 1126 1016 100000 2607 2726 100000 0 135 215 
0 248 619 953 988 2496 2439 2533 100000 135 0 118 
0 335 712 1029 1105 2359 2304 2389 2278 215 118 0 
EOF